32	4
10	10	10	5
0	0	0	0	0	2	2	20
5	10	5	6	3	1	3
5	10	5	6	3	1	4
3	10	10	10	5	2	5	6
6	0	0	0	0	2	7	12
5	10	10	10	5	2	7	12
8	10	10	10	5	1	8
1	10	5	6	3	1	9
7	10	10	10	5	3	10	13	21
5	4	0	1	0	1	11
1	4	2	5	0	1	14
3	6	5	3	3	1	17
6	5	8	5	5	1	14
1	4	5	7	2	2	15	18
1	5	7	4	5	2	16	17
10	0	5	4	2	1	19
10	10	5	6	3	2	23	26
6	5	3	6	0	4	22	28	29	30
6	0	5	4	2	2	23	26
7	0	5	4	2	1	32
7	5	2	5	0	1	32
1	4	3	5	0	1	32
4	10	5	6	3	2	24	27
2	5	5	4	2	2	25	28
6	4	5	0	2	2	29	30
2	4	2	0	3	1	32
7	5	5	4	0	1	32
4	6	5	10	2	1	32
10	6	8	10	2	1	31
4	1	0	5	2	1	32
5	4	5	0	3	1	32
0	0	0	0	0	0
